(declare-fun temp4385_1 () (_ BitVec 64))
(declare-fun var262370 () (_ BitVec 64))
(declare-fun temp4385_2 () (_ BitVec 64))
(declare-fun temp4385_3 () (_ BitVec 64))
(declare-fun var131812 () (_ BitVec 64))
(declare-fun k!0 () Bool)
(declare-fun ARGNAME_x_NAMEEND_DIM () (_ BitVec 64))
(declare-fun temp4385_4 () (_ BitVec 64))
(declare-fun var131298 () (_ BitVec 64))
(declare-fun temp4385_5 () (_ BitVec 64))
(declare-fun temp4385_6 () (_ BitVec 64))
(declare-fun ARGNAME_x_NAMEEND_DIMSIZE () (Array (_ BitVec 64) (_ BitVec 64)))
(declare-fun temp4385_7 () (_ BitVec 64))
(declare-fun temp4385_8 () (_ BitVec 64))
(declare-fun temp4385_9 () (_ BitVec 64))
(declare-fun temp4385_10 () (_ BitVec 64))
(declare-fun temp4385_11 () (_ BitVec 64))
(declare-fun temp4385_12 () (_ BitVec 64))
(declare-fun temp4385_13 () (_ BitVec 64))
(declare-fun temp4385_14 () (_ BitVec 64))
(declare-fun temp4385_15 () (_ BitVec 64))
(declare-fun temp4385_16 () (_ BitVec 64))
(declare-fun temp4385_17 () (_ BitVec 64))
(declare-fun temp4385_18 () (_ BitVec 64))
(declare-fun temp4385_19 () (_ BitVec 64))
(declare-fun temp4385_20 () (_ BitVec 64))
(declare-fun temp4385_21 () (_ BitVec 64))
(declare-fun temp4385_22 () (_ BitVec 64))
(declare-fun temp4385_23 () (_ BitVec 64))
(declare-fun temp4385_24 () (_ BitVec 64))
(declare-fun temp4385_25 () (_ BitVec 64))
(declare-fun var131815 () (_ BitVec 64))
(declare-fun temp4385_27 () (_ BitVec 64))
(declare-fun temp4385_26 () (_ BitVec 64))
(declare-fun temp4385_28 () (_ BitVec 64))
(declare-fun var592370 () (_ BitVec 64))
(declare-fun var592372 () (_ BitVec 64))
(declare-fun var658108 () (_ BitVec 64))
(declare-fun temp4385_29 () (_ BitVec 64))
(declare-fun temp4385_30 () (_ BitVec 64))
(declare-fun temp4385_31 () (_ BitVec 64))
(declare-fun temp4385_32 () (_ BitVec 64))
(declare-fun var131845 () (_ BitVec 64))
(declare-fun temp4385_34 () (_ BitVec 64))
(declare-fun temp4385_33 () (_ BitVec 64))
(declare-fun temp4385_36 () (_ BitVec 64))
(declare-fun temp4385_35 () (_ BitVec 64))
(declare-fun temp4385_37 () (_ BitVec 64))
(declare-fun var2098470 () (_ BitVec 64))
(declare-fun temp4385_39 () (_ BitVec 64))
(declare-fun temp4385_38 () (_ BitVec 64))
(declare-fun temp4385_40 () (_ BitVec 64))
(declare-fun var2622758 () (_ BitVec 64))
(declare-fun temp4385_41 () (_ BitVec 64))
(declare-fun var2622806 () (_ BitVec 64))
(declare-fun temp4385_42 () (_ BitVec 64))
(assert (= temp4385_1 #x0000000000000000))
(assert (= var262370 temp4385_1))
(assert (= temp4385_2 #x0000000000000001))
(assert (= var131812
   (ite (= ARGNAME_x_NAMEEND_DIM temp4385_2)
        #x0000000000000001
        #x0000000000000000)))
(assert (= temp4385_3 #x0000000000000001))
(assert (= var131812 temp4385_3))
(assert (= temp4385_4 #x0000000000000000))
(assert (= var131298 temp4385_4))
(assert (= temp4385_5 #x0000000000000000))
(assert (= temp4385_6 temp4385_5))
(assert (= temp4385_7 (select ARGNAME_x_NAMEEND_DIMSIZE temp4385_6)))
(assert (= temp4385_8 #x0000000000000001))
(assert (= temp4385_9 temp4385_8))
(assert (= temp4385_10 (select ARGNAME_x_NAMEEND_DIMSIZE temp4385_9)))
(assert (= temp4385_11 #x0000000000000002))
(assert (= temp4385_12 temp4385_11))
(assert (= temp4385_13 (select ARGNAME_x_NAMEEND_DIMSIZE temp4385_12)))
(assert (= temp4385_14 #x0000000000000003))
(assert (= temp4385_15 temp4385_14))
(assert (= temp4385_16 (select ARGNAME_x_NAMEEND_DIMSIZE temp4385_15)))
(assert (= temp4385_17 #x0000000000000004))
(assert (= temp4385_18 temp4385_17))
(assert (= temp4385_19 (select ARGNAME_x_NAMEEND_DIMSIZE temp4385_18)))
(assert (= temp4385_20 #x0000000000000005))
(assert (= temp4385_21 temp4385_20))
(assert (= temp4385_22 (select ARGNAME_x_NAMEEND_DIMSIZE temp4385_21)))
(assert (= temp4385_23 #x0000000000000000))
(assert (= temp4385_24
   (ite (bvslt var131298 temp4385_23)
        (bvadd ARGNAME_x_NAMEEND_DIM var131298)
        var131298)))
(assert (= temp4385_25 (select ARGNAME_x_NAMEEND_DIMSIZE temp4385_24)))
(assert (= var131815 temp4385_25))
(assert (bvslt (ite (bvslt var131298 temp4385_23)
            (bvadd ARGNAME_x_NAMEEND_DIM var131298)
            var131298)
       ARGNAME_x_NAMEEND_DIM))
(assert (= temp4385_27 #x0000000000000001))
(assert (= temp4385_26 temp4385_27))
(assert (= temp4385_28 #x0000000000000005))
(assert (= var592370 temp4385_28))
(assert (= var592372 var592370))
(assert (= var658108 var592372))
(assert (= temp4385_29 #x0000000000000000))
(assert (= var131298 temp4385_29))
(assert (= temp4385_30 #x0000000000000000))
(assert (= temp4385_31
   (ite (bvslt var131298 temp4385_30)
        (bvadd ARGNAME_x_NAMEEND_DIM var131298)
        var131298)))
(assert (= temp4385_32 (select ARGNAME_x_NAMEEND_DIMSIZE temp4385_31)))
(assert (= var131845 temp4385_32))
(assert (bvslt (ite (bvslt var131298 temp4385_30)
            (bvadd ARGNAME_x_NAMEEND_DIM var131298)
            var131298)
       ARGNAME_x_NAMEEND_DIM))
(assert (= temp4385_34 #x0000000000000000))
(assert (= temp4385_33 temp4385_34))
(assert (= temp4385_36 #xffffffffffffffff))
(assert (= temp4385_35 temp4385_36))
(assert (= temp4385_37 #x0000000000000001))
(assert (= var2098470 temp4385_37))
(assert (= temp4385_39 #x0000000000000001))
(assert (= temp4385_38 temp4385_39))
(assert (= temp4385_40 #x0000000000000001))
(assert (= var2622758 temp4385_40))
(assert (= temp4385_41 #x0000000000000000))
(assert (= var2622806 temp4385_41))
(assert (= temp4385_42 #x0000000000000000))
(assert (= var2622806 temp4385_42))
(model-add temp4385_1 () (_ BitVec 64) #x0000000000000000)
(model-add var262370 () (_ BitVec 64) #x0000000000000000)
(model-add temp4385_2 () (_ BitVec 64) #x0000000000000001)
(model-add temp4385_3 () (_ BitVec 64) #x0000000000000001)
(model-add var131812 () (_ BitVec 64) #x0000000000000001)
(model-del k!0)
(model-add ARGNAME_x_NAMEEND_DIM
           ()
           (_ BitVec 64)
           (ite k!0 #x0000000000000001 (bvnot #x0000000000000001)))






